
Gurobi 12.0.2 (win64) logging started Sun Jun  8 11:32:32 2025

Set parameter LogFile to value "C:\Ioana\_uni\honours\slp\algorithm\Main_files\results\others\prox_tubules_new_model\Task_003_Sample005_irr_gurobi.log"
Gurobi Optimizer version 12.0.2 build v12.0.2rc0 (win64 - Windows 11.0 (26100.2))

CPU model: Intel(R) Core(TM) Ultra 5 125H, instruction set [SSE2|AVX|AVX2]
Thread count: 14 physical cores, 18 logical processors, using up to 18 threads

Non-default parameters:
TimeLimit  2200

Optimize a model with 47226 rows, 34499 columns and 146686 nonzeros
Model fingerprint: 0x0f635f41
Variable types: 17254 continuous, 17245 integer (17245 binary)
Coefficient statistics:
  Matrix range     [1e-04, 8e+04]
  Objective range  [5e-05, 3e+00]
  Bounds range     [1e+00, 1e+03]
  RHS range        [1e+00, 1e+00]
Presolve removed 30825 rows and 21546 columns
Presolve time: 0.36s
Presolved: 16401 rows, 12953 columns, 54578 nonzeros
Variable types: 6410 continuous, 6543 integer (6543 binary)

Root relaxation: objective 1.024535e-03, 1018 iterations, 0.03 seconds (0.08 work units)

    Nodes    |    Current Node    |     Objective Bounds      |     Work
 Expl Unexpl |  Obj  Depth IntInf | Incumbent    BestBd   Gap | It/Node Time

     0     0    0.00102    0   12          -    0.00102      -     -    0s
H    0     0                       1.0129827    0.00102   100%     -    0s
     0     0    0.98933    0   20    1.01298    0.98933  2.33%     -    0s
     0     0    0.99737    0   13    1.01298    0.99737  1.54%     -    1s
     0     0    0.99737    0    8    1.01298    0.99737  1.54%     -    1s
     0     0    1.01232    0    1    1.01298    1.01232  0.07%     -    1s
     0     0     cutoff    0         1.01298    1.01298  0.00%     -    1s

Explored 1 nodes (2792 simplex iterations) in 1.23 seconds (1.21 work units)
Thread count was 18 (of 18 available processors)

Solution count 1: 1.01298 

Optimal solution found (tolerance 1.00e-04)
Best objective 1.012982650244e+00, best bound 1.012982650244e+00, gap 0.0000%
